# Solution for model DSBMIP
# Objective value = -3.0519817500946880e+02
XFA10001 0
XFA10002 0
XFA10003 0
XFA10004 0
XFA10005 0
XFA10006 0
XFA10007 0
XFA10008 0
XFA10009 0
XFA1000A 0
XFA1000B 0
XFA1000C 0
XFA1000D 0
XFA1000E 0
XFA1000F 0
XFA10010 0
XFA10011 0
XFA10012 1.7879844821147253e+04
XFA10013 0
XFA10014 0
XFA10015 0
XFA10016 0
XFA10017 0
XFA10018 0
XFA10019 0
XFA1001A 0
XFA1001B 0
XFA1001C 0
XFA1001D 0
XFA1001E 3.6644740448333119e+04
XFA1001F 0
XFA10020 0
XFA10021 0
XFA10022 0
XFA10023 0
XFA10024 2000
XFA10025 0
XFA10026 2.0014892020958010e+04
XFA10027 0
XFA10028 0
XFA10029 0
XFA1002A 0
XFA1002B 0
XFA1002C 0
XFA1002D 0
XFA1002E 0
XFA1002F 0
XFA10030 0
XFA10031 0
XFA10032 0
XFA10033 0
XFA10034 0
XFA10035 0
XFA10036 3.4520474057204505e+04
XFA10037 0
XFA10038 8.3805853845656839e+02
XFA10039 0
XFA1003A 0
XFA1003B 0
XFA1003C 0
XFA1003D 0
XFA1003E 0
XFA1003F 0
XFA10040 0
XFA10041 0
XFA10042 0
XFA10043 0
XFA10044 0
XFA10045 0
XFA10046 0
XFA10047 0
XFA10048 0
XFA10049 0
XFA1004A 0
XFA1004B 0
XFA1004C 0
XFA1004D 0
XFA1004E 0
XFA1004F 0
XFA10050 0
XFA10051 0
XFA10052 0
XFA10053 0
XFA10054 2.0605739337042905e-13
XFA10055 0
XFA10056 0
XFA10057 0
XFA10058 0
XFA10059 0
XFA1005A 0
XFA1005B 0
XFA1005C 1.8935481181684822e+03
XFA1005D 2.6354804693061496e+01
XFA1005E 0
XFA1005F 0
XFA10060 0
XFA10061 0
XFA10062 0
XFA10063 0
XFA10064 0
XFA10065 5.7374740784360563e+02
XFA10066 0
XFA10067 0
XFA10068 0
XFA10069 0
XFA1006A 0
XFA1006B 0
XFA1006C 0
XFA1006D 6.9378932331182468e+03
XFA1006E 0
XFA1006F 0
XFA10070 0
XFA10071 0
XFA10072 0
XFA10073 2.9577689280873464e+01
XFA10074 0
XFA10075 1.6297111071912704e+02
XFA10076 0
XFA10077 0
XFA10078 0
XFA10079 0
XFA1007A 0
XFA1007B 0
XFA1007C 6.9115384284251850e+03
XFA1007D 0
XFA1007E 0
XFA1007F 0
XFA10080 0
XFA10081 0
XFA10082 0
XFA10083 2841.71888394939
XFA10084 0
XFA10085 0
XFA10086 7.0983297684077143e+03
XFA10087 0
XFA10088 0
XFA10089 0
XFA1008A 0
XFA1008B 0
XFA1008C 0
XFA1008D 0
XFA1008E 0
XFA1008F 0
XFA10090 0
XFA10091 0
XFA10092 0
XFA10093 0
XFA10094 0
XFA10095 0
XFA10096 0
XFA10097 0
XFA10098 0
XFA10099 0
XFA1009A 0
XFA1009B 0
XFA1009C 0
XFA1009D 0
XFA1009E 13000
XFA1009F 0
XFA100A0 0
XFA100A1 0
XFA100A2 0
XFA100A3 0
XFA100A4 0
XFA100A5 0
XFA100A6 0
XFA100A7 0
XFA100A8 0
XFA100A9 0
XFA100AA 0
XFA100AB 0
XFA100AC 0
XFA100AD 0
XFA100AE 0
XFA100AF 0
XFA100B0 0
XFA100B1 0
XFA100B2 0
XFA100B3 0
XFA100B4 0
XFA20001 0
XFA20002 0
XFA20003 0
XFA20004 0
XFA20005 0
XFA20006 0
XFA20007 0
XFA20008 0
XFA20009 0
XFA2000A 0
XFA2000B 0
XFA2000C 0
XFA2000D 0
XFA2000E 0
XFA2000F 0
XFA20010 0
XFA20011 0
XFA20012 3.7894736842105260e+04
XFA20013 0
XFA20014 0
XFA20015 0
XFA20016 0
XFA20017 0
XFA20018 0
XFA20019 0
XFA2001A 0
XFA2001B 0
XFA2001C 0
XFA2001D 0
XFA2001E 0
XFA2001F 0
XFA20020 0
XFA20021 0
XFA20022 2.0184403715920038e+04
XFA20023 0
XFA20024 8.4599999924523836e+03
XFA20025 0
XFA20026 0
XFA20027 0
XFA20028 0
XFA20029 0
XFA2002A 0
XFA2002B 0
XFA2002C 0
XFA2002D 0
XFA2002E 0
XFA2002F 0
XFA20030 0
XFA20031 0
XFA20032 4.3743070216740838e+04
XFA20033 0
XFA20034 0
XFA20035 0
XFA20036 1.4336070341284467e+04
XFA20037 0
XFA20038 8.4600000075476164e+03
XFA20039 0
XFA2003A 0
XFA2003B 0
XFA2003C 0
XFA2003D 0
XFA2003E 0
XFA2003F 0
XFA20040 0
XFA20041 0
XFA20042 0
XFA20043 0
XFA20044 0
XFA20045 0
XFA20046 0
XFA20047 0
XFA20048 0
XFA20049 0
XFA2004A 0
XFA2004B 0
XFA2004C 0
XFA2004D 0
XFA2004E 0
XFA2004F 0
XFA20050 0
XFA20051 0
XFA20052 0
XFA20053 0
XFA20054 0
XFA20055 0
XFA20056 0
XFA20057 0
XFA20058 0
XFA20059 0
XFA2005A 0
XFA2005B 0
XFA2005C 5.1163700999998946e+02
XFA2005D 1.9998800000001211e+01
XFA2005E 0
XFA2005F 0
XFA20060 0
XFA20061 0
XFA20062 0
XFA20063 0
XFA20064 0
XFA20065 0
XFA20066 0
XFA20067 0
XFA20068 0
XFA20069 0
XFA2006A 0
XFA2006B 0
XFA2006C 0
XFA2006D 0
XFA2006E 0
XFA2006F 0
XFA20070 0
XFA20071 9.1708594419746951e+03
XFA20072 0
XFA20073 0
XFA20074 0
XFA20075 0
XFA20076 0
XFA20077 0
XFA20078 0
XFA20079 0
XFA2007A 0
XFA2007B 0
XFA2007C 0
XFA2007D 0
XFA2007E 0
XFA2007F 0
XFA20080 0
XFA20081 0
XFA20082 0
XFA20083 0
XFA20084 0
XFA20085 0
XFA20086 0
XFA20087 0
XFA20088 0
XFA20089 0
XFA2008A 0
XFA2008B 0
XFA2008C 6.6708594419746951e+03
XFA2008D 0
XFA2008E 0
XFA2008F 0
XFA20090 0
XFA20091 0
XFA20092 0
XFA20093 0
XFA20094 0
XFA20095 0
XFA20096 0
XFA20097 0
XFA20098 0
XFA20099 0
XFA2009A 0
XFA2009B 0
XFA2009C 0
XFA2009D 0
XFA2009E 0
XFA2009F 0
XFA200A0 0
XFA200A1 0
XFA200A2 0
XFA200A3 20
XFA200A4 0
XFA200A5 0
XFA200A6 0
XFA200A7 0
XFA200A8 0
XFA200A9 0
XFA200AA 0
XFA200AB 0
XFA200AC 1.1999999987892807e-03
XFA200AD 0
XFA200AE 0
XFA200AF 0
XFA200B0 0
XFA200B1 0
XFA200B2 0
XFA200B3 0
XFA200B4 0
XFA30001 0
XFA30002 0
XFA30003 0
XFA30004 0
XFA30005 0
XFA30006 0
XFA30007 0
XFA30008 0
XFA30009 0
XFA3000A 0
XFA3000B 0
XFA3000C 0
XFA3000D 0
XFA3000E 0
XFA3000F 0
XFA30010 0
XFA30011 0
XFA30012 3.5570156819489173e+04
XFA30013 0
XFA30014 0
XFA30015 0
XFA30016 0
XFA30017 0
XFA30018 0
XFA30019 0
XFA3001A 0
XFA3001B 0
XFA3001C 0
XFA3001D 0
XFA3001E 5.0764567964519219e+03
XFA3001F 0
XFA30020 0
XFA30021 0
XFA30022 0
XFA30023 0
XFA30024 7.8713585344917528e+03
XFA30025 0
XFA30026 0
XFA30027 0
XFA30028 0
XFA30029 0
XFA3002A 0
XFA3002B 0
XFA3002C 0
XFA3002D 0
XFA3002E 0
XFA3002F 0
XFA30030 0
XFA30031 0
XFA30032 3.8666613420288915e+04
XFA30033 0
XFA30034 0
XFA30035 0
XFA30036 0
XFA30037 0
XFA30038 9068.64146550825
XFA30039 0
XFA3003A 0
XFA3003B 0
XFA3003C 0
XFA3003D 0
XFA3003E 0
XFA3003F 0
XFA30040 0
XFA30041 0
XFA30042 0
XFA30043 0
XFA30044 0
XFA30045 0
XFA30046 0
XFA30047 0
XFA30048 0
XFA30049 0
XFA3004A 0
XFA3004B 0
XFA3004C 0
XFA3004D 0
XFA3004E 0
XFA3004F 0
XFA30050 0
XFA30051 0
XFA30052 0
XFA30053 0
XFA30054 0
XFA30055 0
XFA30056 0
XFA30057 0
XFA30058 0
XFA30059 0
XFA3005A 0
XFA3005B 0
XFA3005C 0
XFA3005D 0
XFA3005E 0
XFA3005F 0
XFA30060 0
XFA30061 0
XFA30062 0
XFA30063 0
XFA30064 0
XFA30065 0
XFA30066 0
XFA30067 0
XFA30068 0
XFA30069 0
XFA3006A 0
XFA3006B 0
XFA3006C 0
XFA3006D 0
XFA3006E 7.8782010601531674e+03
XFA3006F 0
XFA30070 4.4999667186515468e+00
XFA30071 1.5837218917230739e+04
XFA30072 0
XFA30073 0
XFA30074 0
XFA30075 0
XFA30076 0
XFA30077 0
XFA30078 0
XFA30079 0
XFA3007A 0
XFA3007B 0
XFA3007C 0
XFA3007D 0
XFA3007E 0
XFA3007F 0
XFA30080 0
XFA30081 0
XFA30082 0
XFA30083 0
XFA30084 0
XFA30085 0
XFA30086 2.3245800226160932e+03
XFA30087 0
XFA30088 0
XFA30089 2.6642272997051332e+04
XFA3008A 0
XFA3008B 0
XFA3008C 0
XFA3008D 0
XFA3008E 0
XFA3008F 0
XFA30090 0
XFA30091 0
XFA30092 0
XFA30093 0
XFA30094 0
XFA30095 0
XFA30096 0
XFA30097 0
XFA30098 0
XFA30099 0
XFA3009A 0
XFA3009B 0
XFA3009C 0
XFA3009D 0
XFA3009E 0
XFA3009F 0
XFA300A0 0
XFA300A1 0
XFA300A2 0
XFA300A3 0
XFA300A4 0
XFA300A5 0
XFA300A6 0
XFA300A7 0
XFA300A8 0
XFA300A9 0
XFA300AA 0
XFA300AB 0
XFA300AC 1.1999999987892807e-03
XFA300AD 0
XFA300AE 0
XFA300AF 0
XFA300B0 0
XFA300B1 0
XFA300B2 0
XFA300B3 0
XFA300B4 0
XIB10001 0
XIB10002 0
XIB10003 0
XIB10004 0
XIB10005 0
XIB10006 0
XIB10007 0
XIB10008 0
XIB10009 0
XIB1000A 0
XIB1000B 5.4535366078162508e+04
XIB1000C 8.3805853845656827e+02
XIB1000D 0
XIB1000E 0
XIB1000F 0
XIB10010 0
XIB10011 0
XIB10012 0
XIB10013 0
XIB10014 0
XIB10015 0
XIB10016 0
XIB10017 0
XIB10018 0
XIB10019 0
XIB1001A 0
XIB1001B 0
XIB1001C 0
XIB1001D 0
XIB1001E 0
XIB1001F 0
XIB10020 0
XIB10021 0
XIB10022 7.4625002427900438e+02
XIB10023 0
XIB10024 0
XIB10025 0
XIB10026 0
XIB10027 5.4524585269480369e+04
XIB10028 1.2537499757209957e+03
XIB10029 0
XIB1002A 0
XIB1002B 0
XIB1002C 0
XIB1002D 0
XIB1002E 0
XIB1002F 0
XIB10030 0
XIB10031 0
XIB10032 0
XIB10033 0
XIB10034 0
XIB10035 0
XIB10036 0
XIB10037 0
XIB10038 0
XIB10039 0
XIB1003A 9.9400486523571035e+03
XIB1003B 7.3671851856273270e+02
XIB1003C 0
XIB1003D 0
XIB1003E 0
XIB1003F 0
XIB10040 1.8935481181684822e+03
XIB10041 0
XIB10042 0
XIB10043 0
XIB10044 1000
XIB10045 0
XIB10046 0
XIB10047 12000
XIB10048 0
XIB10049 0
XIB1004A 0
XIB1004B 0
XIB1004C 6.9115384284251850e+03
XIB1004D 2.9577689280873670e+01
XIB1004E 0
XIB1004F 0
XIB10050 2.6354804693061496e+01
XIB10051 0
XIB10052 0
XIB10053 0
XIB10054 6.9378932331182468e+03
XIB20001 0
XIB20002 0
XIB20003 18000
XIB20004 0
XIB20005 18000
XIB20006 0
XIB20007 0
XIB20008 0
XIB20009 0
XIB2000A 0
XIB2000B 2.2079140558025305e+04
XIB2000C 8.4600000075476164e+03
XIB2000D 0
XIB2000E 0
XIB2000F 0
XIB20010 0
XIB20011 0
XIB20012 0
XIB20013 0
XIB20014 0
XIB20015 0
XIB20016 0
XIB20017 0
XIB20018 0
XIB20019 0
XIB2001A 0
XIB2001B 0
XIB2001C 0
XIB2001D 0
XIB2001E 0
XIB2001F 0
XIB20020 0
XIB20021 0
XIB20022 0
XIB20023 1.0670635987051342e+04
XIB20024 0
XIB20025 12000
XIB20026 0
XIB20027 3.5408504570973964e+04
XIB20028 8.4599999924523836e+03
XIB20029 0
XIB2002A 0
XIB2002B 0
XIB2002C 0
XIB2002D 0
XIB2002E 0
XIB2002F 0
XIB20030 0
XIB20031 0
XIB20032 0
XIB20033 0
XIB20034 0
XIB20035 0
XIB20036 0
XIB20037 0
XIB20038 0
XIB20039 2500
XIB2003A 6.6708594419746951e+03
XIB2003B 0
XIB2003C 0
XIB2003D 0
XIB2003E 0
XIB2003F 0
XIB20040 0
XIB20041 5.1163700999998946e+02
XIB20042 0
XIB20043 6.6708594419746951e+03
XIB20044 0
XIB20045 0
XIB20046 0
XIB20047 0
XIB20048 0
XIB20049 0
XIB2004A 0
XIB2004B 0
XIB2004C 0
XIB2004D 0
XIB2004E 20
XIB2004F 0
XIB20050 0
XIB20051 0
XIB20052 0
XIB20053 0
XIB20054 20
XIB30001 0
XIB30002 0
XIB30003 0
XIB30004 1980
XIB30005 1.5672729970512746e+03
XIB30006 0
XIB30007 0
XIB30008 0
XIB30009 0
XIB3000A 0
XIB3000B 4.0646613615941140e+04
XIB3000C 7.0886414655082481e+03
XIB3000D 0
XIB3000E 0
XIB3000F 0
XIB30010 0
XIB30011 0
XIB30012 0
XIB30013 0
XIB30014 0
XIB30015 0
XIB30016 0
XIB30017 0
XIB30018 0
XIB30019 0
XIB3001A 0
XIB3001B 0
XIB3001C 0
XIB3001D 0
XIB3001E 0
XIB3001F 0
XIB30020 0
XIB30021 0
XIB30022 0
XIB30023 12000
XIB30024 0
XIB30025 12000
XIB30026 0
XIB30027 1.6646613615941093e+04
XIB30028 7.9067010234079335e+03
XIB30029 0
XIB3002A 0
XIB3002B 1.4376432311970882e-05
XIB3002C 4.4999523422192347e+00
XIB3002D 0
XIB3002E 0
XIB3002F 0
XIB30030 0
XIB30031 0
XIB30032 0
XIB30033 0
XIB30034 0
XIB30035 0
XIB30036 0
XIB30037 11040
XIB30038 15000
XIB30039 0
XIB3003A 0
XIB3003B 0
XIB3003C 0
XIB3003D 0
XIB3003E 0
XIB3003F 0
XIB30040 0
XIB30041 0
XIB30042 0
XIB30043 0
XIB30044 2.6642272997051332e+04
XIB30045 0
XIB30046 0
XIB30047 0
XIB30048 0
XIB30049 0
XIB3004A 0
XIB3004B 0
XIB3004C 0
XIB3004D 0
XIB3004E 1.1999999987892807e-03
XIB3004F 0
XIB30050 0
XIB30051 0
XIB30052 0
XIB30053 0
XIB30054 0
XIN10001 540
XIN10002 2000
XIN10003 1500
XIN10004 2000
XIN10005 2000
XIN10006 180
XIN10007 360
XIN10008 1000
XIN10009 360
XIN1000A 4000
XIN1000B 2000
XIN1000C 450
XIN1000D 2000
XIN1000E 4000
XIN1000F 4000
XIN20001 5.3010006419066247e+02
XIN20002 0
XIN20003 0
XIN20004 0
XIN20005 7.8271705388827024e+02
XIN20006 0
XIN20007 0
XIN20008 0
XIN20009 0
XIN2000A 0
XIN2000B 0
XIN2000C 2000
XIN2000D 0
XIN2000E 0
XIN2000F 0
XIN20010 0
XIN20011 0
XIN20012 0
XIN20013 0
XIN20014 0
XIN20015 0
XIN20016 0
XIN20017 0
XIN20018 0
XIN20019 1.7820002060620931e+02
XIN2001A 0
XIN2001B 356.4
XIN2001C 0
XIN2001D 0
XIN2001E 990
XIN2001F 0
XIN20020 0
XIN20021 0
XIN20022 3.5640002060620930e+02
XIN20023 0
XIN20024 0
XIN20025 0
XIN20026 0
XIN20027 4000
XIN20028 0
XIN20029 0
XIN2002A 0
XIN2002B 0
XIN2002C 0
XIN2002D 1.9599988000000012e+03
XIN2002E 0
XIN2002F 0
XIN20030 0
XIN20031 0
XIN20032 0
XIN20033 0
XIN20034 0
XIN20035 4.4999998732480265e+02
XIN20036 0
XIN20037 0
XIN20038 0
XIN20039 4.1569143726442741e+02
XIN2003A 0
XIN2003B 1.3293640129486585e+03
XIN2003C 0
XIN2003D 0
XIN2003E 0
XIN2003F 4000
XIN20040 0
XIN20041 0
XIN20042 0
XIN20043 0
XIN20044 5000
XIN20045 0
XIN20046 0
XIN20047 0
XIN20048 0
XIN20049 0
XIN2004A 0
XIN2004B 0
XIN2004C 7.4625002427900438e+02
XIN30001 5.3010004765778081e+02
XIN30002 0
XIN30003 0
XIN30004 0
XIN30005 7.8271706898350408e+02
XIN30006 0
XIN30007 0
XIN30008 2500
XIN30009 0
XIN3000A 0
XIN3000B 0
XIN3000C 1980
XIN3000D 0
XIN3000E 0
XIN3000F 0
XIN30010 0
XIN30011 0
XIN30012 0
XIN30013 0
XIN30014 0
XIN30015 0
XIN30016 0
XIN30017 0
XIN30018 0
XIN30019 1.7820000958428818e+02
XIN3001A 0
XIN3001B 356.4
XIN3001C 0
XIN3001D 0
XIN3001E 990
XIN3001F 0
XIN30020 0
XIN30021 0
XIN30022 3.5640000958428817e+02
XIN30023 0
XIN30024 0
XIN30025 0
XIN30026 0
XIN30027 3960
XIN30028 0
XIN30029 0
XIN3002A 0
XIN3002B 0
XIN3002C 0
XIN3002D 1.9799988000000012e+03
XIN3002E 0
XIN3002F 0
XIN30030 0
XIN30031 0
XIN30032 0
XIN30033 0
XIN30034 0
XIN30035 4.4999997630293973e+02
XIN30036 0
XIN30037 0
XIN30038 0
XIN30039 4.1569144732786344e+02
XIN3003A 0
XIN3003B 0
XIN3003C 0
XIN3003D 0
XIN3003E 0
XIN3003F 3960
XIN30040 0
XIN30041 0
XIN30042 0
XIN30043 0
XIN30044 3.3577270029486658e+03
XIN30045 0
XIN30046 0
XIN30047 0
XIN30048 0
XIN30049 0
XIN3004A 0
XIN3004B 0
XIN3004C 746.249999120277
XIN40001 534.6
XIN40002 1980
XIN40003 1485
XIN40004 1980
XIN40005 1980
XIN40006 178.2
XIN40007 356.4
XIN40008 990
XIN40009 356.4
XIN4000A 3960
XIN4000B 1980
XIN4000C 445.5
XIN4000D 1980
XIN4000E 3960
XIN4000F 3960
XMK10001 2.7688446494919319e+00
XMK10002 9.0152839588206835e+00
XMK10003 1.8030740948068054e+01
XMK10004 0
XMK10005 2.1711654163797650e+02
XMK10006 7.0692451856273271e+02
XMK10007 1.4138621081684719e+03
XMK10008 0
XMK10009 1.7146938717073720e-01
XMK1000A 6.3375986851257263e-06
XMK1000B 5.5828454549373685e-01
XMK1000C 1.1165730759596901e+00
XMK1000D 3.8136404716368177e-01
XMK1000E 1.2416948482969723e+00
XMK1000F 2.48340631783103
XMK10010 6.3375986851257263e-06
XMK10011 9.3471023750031232e+00
XMK10012 7.4209546270069868e+00
XMK10013 0
XMK10014 2.4162405322053012e+01
XMK10015 4.8325263744992235e+01
XMK10016 0
XMK10017 2.5251099999999852e+02
XMK10018 3.9794000000000011e+01
XMK10019 0
XMK1001A 0
XMK1001B 0
XMK1001C 0
XMK1001D 0
XMK1001E 0
XMK1001F 0
XMK10020 0
XMK10021 0
XMK10022 0
XMK10023 192.731
XMK10024 0
XMK10025 0
XMK10026 0
XMK10027 286.95501
XMK10028 0
XMK10029 0
XMK1002A 0
XMK1002B 59.961
XMK20001 0
XMK20002 0
XMK20003 0
XMK20004 0
XMK20005 0
XMK20006 0
XMK20007 0
XMK20008 0
XMK20009 5.5109605565673375e-06
XMK2000A 5.5109605565673375e-06
XMK2000B 5.5109605565673375e-06
XMK2000C 5.5109605565673375e-06
XMK2000D 5.5109605565673375e-06
XMK2000E 5.5109605565673375e-06
XMK2000F 5.5109605565673375e-06
XMK20010 5.5109605565673375e-06
XMK20011 5.5109605565673375e-06
XMK20012 0
XMK20013 0
XMK20014 0
XMK20015 0
XMK20016 0
XMK20017 0
XMK20018 0
XMK20019 0
XMK2001A 0
XMK2001B 0
XMK2001C 0
XMK2001D 0
XMK2001E 0
XMK2001F 0
XMK20020 0
XMK20021 0
XMK20022 0
XMK20023 2.2163999999998953e+02
XMK20024 0
XMK20025 0
XMK20026 0
XMK20027 329.99701
XMK20028 0
XMK20029 0
XMK2002A 0
XMK2002B 0
XMK30001 0
XMK30002 0
XMK30003 0
XMK30004 0
XMK30005 0
XMK30006 0
XMK30007 0
XMK30008 0
XMK30009 4.7921441039902940e-06
XMK3000A 4.7921441039902940e-06
XMK3000B 4.7921441039902940e-06
XMK3000C 4.7921441039902940e-06
XMK3000D 4.7921441039902940e-06
XMK3000E 4.7921441039902940e-06
XMK3000F 4.7921441039902940e-06
XMK30010 4.7921441039902940e-06
XMK30011 4.7921441039902940e-06
XMK30012 0
XMK30013 0
XMK30014 0
XMK30015 0
XMK30016 0
XMK30017 0
XMK30018 0
XMK30019 0
XMK3001A 0
XMK3001B 0
XMK3001C 0
XMK3001D 0
XMK3001E 0
XMK3001F 0
XMK30020 0
XMK30021 0
XMK30022 0
XMK30023 0
XMK30024 0
XMK30025 0
XMK30026 0
XMK30027 0
XMK30028 0
XMK30029 0
XMK3002A 0
XMK3002B 0
XMX10001 0
XMX10002 0
XMX10003 0
XMX10004 0
XMX10005 0
XMX10006 0
XMX10007 0
XMX10008 0
XMX10009 0
XMX1000A 0
XMX1000B 0
XMX1000C 0
XMX1000D 0
XMX1000E 0
XMX1000F 0
XMX10010 0
XMX10011 0
XMX10012 0
XMX10013 0
XMX10014 0
XMX10015 0
XMX10016 0
XMX10017 0
XMX10018 0
XMX10019 0
XMX1001A 0
XMX1001B 1.0780808682135989e+01
XMX1001C 5.5341484568298078e+01
XMX1001D 0
XMX1001E 0
XMX1001F 0
XMX10020 0
XMX10021 0
XMX10022 0
XMX10023 0
XMX10024 0
XMX10025 0
XMX10026 0
XMX10027 0
XMX10028 0
XMX10029 0
XMX1002A 0
XMX1002B 0
XMX1002C 0
XMX1002D 0
XMX1002E 0
XMX1002F 0
XMX10030 0
XMX10031 0
XMX10032 0
XMX10033 0
XMX10034 0
XMX10035 0
XMX10036 0
XMX10037 0
XMX10038 0
XMX10039 0
XMX1003A 0
XMX1003B 0
XMX1003C 0
XMX1003D 0
XMX1003E 0
XMX1003F 0
XMX10040 0
XMX10041 0
XMX10042 0
XMX10043 0
XMX10044 0
XMX10045 0
XMX10046 0
XMX10047 0
XMX10048 0
XMX10049 0
XMX1004A 0
XMX1004B 0
XMX1004C 0
XMX1004D 0
XMX1004E 0
XMX1004F 6.5985517836919132e+02
XMX10050 0
XMX10051 0
XMX10052 0
XMX10053 0
XMX10054 0
XMX10055 0
XMX10056 0
XMX10057 0
XMX10058 0
XMX20001 0
XMX20002 0
XMX20003 0
XMX20004 0
XMX20005 0
XMX20006 0
XMX20007 0
XMX20008 0
XMX20009 0
XMX2000A 0
XMX2000B 0
XMX2000C 0
XMX2000D 0
XMX2000E 0
XMX2000F 0
XMX20010 0
XMX20011 0
XMX20012 0
XMX20013 0
XMX20014 0
XMX20015 0
XMX20016 0
XMX20017 0
XMX20018 0
XMX20019 0
XMX2001A 0
XMX2001B 0
XMX2001C 0
XMX2001D 0
XMX2001E 0
XMX2001F 0
XMX20020 0
XMX20021 0
XMX20022 0
XMX20023 0
XMX20024 0
XMX20025 0
XMX20026 0
XMX20027 0
XMX20028 0
XMX20029 0
XMX2002A 0
XMX2002B 0
XMX2002C 0
XMX2002D 0
XMX2002E 0
XMX2002F 0
XMX20030 0
XMX20031 0
XMX20032 0
XMX20033 0
XMX20034 0
XMX20035 0
XMX20036 0
XMX20037 0
XMX20038 0
XMX20039 0
XMX2003A 0
XMX2003B 0
XMX2003C 0
XMX2003D 0
XMX2003E 0
XMX2003F 0
XMX20040 0
XMX20041 0
XMX20042 0
XMX20043 0
XMX20044 0
XMX20045 0
XMX20046 0
XMX20047 0
XMX20048 0
XMX20049 0
XMX2004A 0
XMX2004B 0
XMX2004C 0
XMX2004D 0
XMX2004E 0
XMX2004F 1.3293640129486585e+03
XMX20050 0
XMX20051 0
XMX20052 0
XMX20053 0
XMX20054 0
XMX20055 0
XMX20056 0
XMX20057 0
XMX20058 0
XMX30001 0
XMX30002 0
XMX30003 0
XMX30004 0
XMX30005 0
XMX30006 0
XMX30007 0
XMX30008 0
XMX30009 0
XMX3000A 0
XMX3000B 0
XMX3000C 0
XMX3000D 1.5672729970512746e+03
XMX3000E 0
XMX3000F 0
XMX30010 0
XMX30011 0
XMX30012 0
XMX30013 0
XMX30014 0
XMX30015 0
XMX30016 0
XMX30017 0
XMX30018 0
XMX30019 0
XMX3001A 0
XMX3001B 0
XMX3001C 0
XMX3001D 0
XMX3001E 0
XMX3001F 0
XMX30020 0
XMX30021 0
XMX30022 0
XMX30023 0
XMX30024 0
XMX30025 0
XMX30026 0
XMX30027 0
XMX30028 0
XMX30029 0
XMX3002A 0
XMX3002B 0
XMX3002C 0
XMX3002D 0
XMX3002E 0
XMX3002F 0
XMX30030 0
XMX30031 0
XMX30032 0
XMX30033 0
XMX30034 0
XMX30035 0
XMX30036 0
XMX30037 0
XMX30038 0
XMX30039 0
XMX3003A 0
XMX3003B 0
XMX3003C 0
XMX3003D 0
XMX3003E 0
XMX3003F 0
XMX30040 0
XMX30041 0
XMX30042 0
XMX30043 0
XMX30044 0
XMX30045 0
XMX30046 0
XMX30047 0
XMX30048 0
XMX30049 0
XMX3004A 0
XMX3004B 0
XMX3004C 0
XMX3004D 0
XMX3004E 0
XMX3004F 0
XMX30050 0
XMX30051 0
XMX30052 0
XMX30053 0
XMX30054 0
XMX30055 0
XMX30056 0
XMX30057 1.9565217371564358e-04
XMX30058 1.0043478250736371e-03
XOB10001 0
XOB10002 0
XOB10003 0
XOB10004 2000
XOB10005 0
XOB10006 0
XOB10007 0
XOB10008 0
XOB10009 5.4524585269480369e+04
XOB1000A 0
XOB1000B 0
XOB1000C 0
XOB1000D 0
XOB1000E 0
XOB1000F 0
XOB10010 0
XOB10011 6.7063598705134143e+02
XOB10012 0
XOB10013 5.3864730091111174e+04
XOB10014 8.3805853845656839e+02
XOB10015 0
XOB10016 0
XOB10017 0
XOB10018 9.8999358093375420e+00
XOB10019 1.7999793937907091e+00
XOB1001A 0
XOB1001B 0
XOB1001C 3.5999793937907043e+00
XOB1001D 0
XOB1001E 0
XOB1001F 0
XOB10020 1.2675197353928525e-05
XOB10021 0
XOB10022 0
XOB10023 0
XOB10024 2000
XOB10025 1500
XOB10026 9.9400486523571035e+03
XOB10027 7.4671851856273270e+02
XOB10028 0
XOB10029 0
XOB1002A 0
XOB1002B 0
XOB1002C 1.8935481181684827e+03
XOB1002D 0
XOB1002E 0
XOB1002F 0
XOB10030 0
XOB10031 0
XOB10032 0
XOB10033 12000
XOB10034 6.5985517836919132e+02
XOB10035 0
XOB10036 0
XOB10037 0
XOB10038 6977.66072167562
XOB10039 3.3177689280873693e+01
XOB1003A 4.0001199999998789e+01
XOB1003B 0
XOB1003C 2.6354804693061496e+01
XOB1003D 0
XOB1003E 0
XOB1003F 0
XOB10040 6.9378932331182468e+03
XOB20001 0
XOB20002 0
XOB20003 18000
XOB20004 0
XOB20005 18000
XOB20006 0
XOB20007 0
XOB20008 0
XOB20009 2.2079140558025305e+04
XOB2000A 8.4599999924523836e+03
XOB2000B 0
XOB2000C 0
XOB2000D 0
XOB2000E 0
XOB2000F 0
XOB20010 2.5158726202789694e-05
XOB20011 12000
XOB20012 12000
XOB20013 3.4079140558025305e+04
XOB20014 8459.99998238889
XOB20015 0
XOB20016 0
XOB20017 0
XOB20018 1.6532881669702012e-05
XOB20019 1.1021921113134675e-05
XOB2001A 0
XOB2001B 0
XOB2001C 1.1021921113134675e-05
XOB2001D 0
XOB2001E 0
XOB2001F 0
XOB20020 1.1021921113134675e-05
XOB20021 0
XOB20022 0
XOB20023 0
XOB20024 0
XOB20025 0
XOB20026 6.6708594419746951e+03
XOB20027 0
XOB20028 0
XOB20029 0
XOB2002A 0
XOB2002B 0
XOB2002C 40
XOB2002D 5.1163700999998946e+02
XOB2002E 0
XOB2002F 6.7108594419746951e+03
XOB20030 1.6422729970513310e+03
XOB20031 0
XOB20032 0
XOB20033 0
XOB20034 1.3293640129486585e+03
XOB20035 20
XOB20036 0
XOB20037 0
XOB20038 0
XOB20039 0
XOB2003A 0
XOB2003B 0
XOB2003C 0
XOB2003D 0
XOB2003E 0
XOB2003F 0
XOB20040 20
XOB30001 0
XOB30002 0
XOB30003 0
XOB30004 0
XOB30005 0
XOB30006 0
XOB30007 0
XOB30008 0
XOB30009 4.0646613615941082e+04
XOB3000A 7.8713585344917537e+03
XOB3000B 0
XOB3000C 0
XOB3000D 0
XOB3000E 0
XOB3000F 0
XOB30010 746.249999120277
XOB30011 10020
XOB30012 12000
XOB30013 1.6646613420288922e+04
XOB30014 8.3223914663879732e+03
XOB30015 0
XOB30016 0
XOB30017 1.4375977766516338e-05
XOB30018 0
XOB30019 9.5842882079805880e-06
XOB3001A 0
XOB3001B 0
XOB3001C 9.5842881933094759e-06
XOB3001D 0
XOB3001E 0
XOB3001F 0
XOB30020 4.4999763029397286e+00
XOB30021 0
XOB30022 0
XOB30023 1.2607272997051617e+04
XOB30024 13020
XOB30025 1015
XOB30026 0
XOB30027 0
XOB30028 0
XOB30029 0
XOB3002A 0
XOB3002B 0
XOB3002C 0
XOB3002D 0
XOB3002E 0
XOB3002F 0
XOB30030 26040
XOB30031 0
XOB30032 0
XOB30033 0
XOB30034 0
XOB30035 0
XOB30036 0
XOB30037 0
XOB30038 0
XOB30039 0
XOB3003A 0
XOB3003B 0
XOB3003C 0
XOB3003D 0
XOB3003E 0
XOB3003F 0
XOB30040 1.1999999987892807e-03
XSC10001 0
XSC10002 0
XSC10003 0
XSC10004 0
XSC10005 0
XSC10006 0
XSC10007 0
XSC10008 0
XSC10009 0
XSC1000A 0
XSC1000B 0
XSC1000C 0
XSC1000D 0
XSC1000E 0
XSC1000F 0
XSC10010 0
XSC10011 0
XSC10012 0
XSC10013 0
XSC10014 0
XSC10015 0
XSC10016 0
XSC10017 0
XSC10018 0
XSC10019 0
XSC1001A 0
XSC1001B 0
XSC1001C 0
XSC1001D 0
XSC1001E 0
XSC1001F 0
XSC10020 0
XSC10021 0
XSC10022 0
XSC10023 0
XSC10024 0
XSC10025 0
XSC10026 0
XSC10027 0
XSC10028 0
XSC10029 0
XSC1002A 0
XSC1002B 0
XSC1002C 0
XSC1002D 0
XSC20001 0
XSC20002 7.2759576141834259e-12
XSC20003 0
XSC20004 0
XSC20005 0
XSC20006 0
XSC20007 0
XSC20008 0
XSC20009 0
XSC2000A 0
XSC2000B 0
XSC2000C 0
XSC2000D 0
XSC2000E 0
XSC2000F 0
XSC20010 0
XSC20011 0
XSC20012 0
XSC20013 0
XSC20014 0
XSC20015 0
XSC20016 0
XSC20017 0
XSC20018 0
XSC20019 0
XSC2001A 0
XSC2001B 0
XSC2001C 0
XSC2001D 0
XSC2001E 0
XSC2001F 0
XSC20020 0
XSC20021 0
XSC20022 0
XSC20023 0
XSC20024 0
XSC20025 0
XSC20026 0
XSC20027 0
XSC20028 0
XSC20029 0
XSC2002A 0
XSC2002B 0
XSC2002C 0
XSC2002D 0
XSC30001 0
XSC30002 0
XSC30003 0
XSC30004 0
XSC30005 0
XSC30006 3.5342488916180628e+01
XSC30007 3.5472731927034988e+03
XSC30008 0
XSC30009 0
XSC3000A 0
XSC3000B 0
XSC3000C 0
XSC3000D 0
XSC3000E 0
XSC3000F 0
XSC30010 0
XSC30011 0
XSC30012 0
XSC30013 0
XSC30014 0
XSC30015 0
XSC30016 0
XSC30017 0
XSC30018 0
XSC30019 0
XSC3001A 0
XSC3001B 0
XSC3001C 0
XSC3001D 0
XSC3001E 0
XSC3001F 0
XSC30020 0
XSC30021 0
XSC30022 0
XSC30023 0
XSC30024 0
XSC30025 0
XSC30026 0
XSC30027 0
XSC30028 0
XSC30029 0
XSC3002A 0
XSC3002B 0
XSC3002C 0
XSC3002D 0
ZGB10001 1
ZGB10002 1
ZGB10003 1
ZGB10004 1
ZGB10005 1
ZGB10006 1
ZGB10007 1
ZGB10008 1
ZGB10009 1
ZGB1000A 1
ZGB1007B 0
ZGB1007C 0
ZGB1007D 0
ZGB1007E 0
ZGB1007F 0
ZGB10080 0
ZGB10081 0
ZGB10082 0
ZGB10083 0
ZGB10084 0
ZGB10085 0
ZGB10086 0
ZGB10087 0
ZGB10088 0
ZGB10089 0
ZGB1008A 0
ZGB1008B 0
ZGB1008C 0
ZGB1008D 0
ZGB1008E 1
ZGB1008F 0
ZGB10090 0
ZGB10091 0
ZGB10092 0
ZGB10093 0
ZGB10094 0
ZGB10095 1
ZGB10096 0
ZGB10097 0
ZGB10098 0
ZGB10099 0
ZGB1009A 0
ZGB1009B 1
ZGB1009C 0
ZGB1009D 0
ZGB1009E 0
ZGB1009F 0
ZGB100A0 0
ZGB100A1 0
ZGB100A2 0
ZGB100A3 0
ZGB100A4 1
ZGB100A5 0
ZGB100A6 1
ZGB100A7 0
ZGB100A8 0
ZGB100A9 0
ZGB100AA 1
ZGB100AB 0
ZGB100AC 0
ZGB100AD 0
ZGB100AE 0
ZGB100AF 0
ZGB100B0 0
ZGB2000B 1
ZGB2000C 0
ZGB2000D 1
ZGB2000E 0
ZGB2000F 0
ZGB20010 0
ZGB20011 1
ZGB20012 0
ZGB20013 0
ZGB20014 0
ZGB20015 0
ZGB20016 0
ZGB20017 1
ZGB20018 0
ZGB20019 0
ZGB2001A 0
ZGB2001B 0
ZGB2001C 1
ZGB2001D 0
ZGB2001E 1
ZGB2001F 0
ZGB20020 1
ZGB20021 0
ZGB20022 1
ZGB20023 0
ZGB20024 1
ZGB20025 0
ZGB20026 0
ZGB20027 0
ZGB20028 1
ZGB20029 0
ZGB2002A 0
ZGB2002B 0
ZGB2002C 1
ZGB2002D 0
ZGB2002E 0
ZGB2002F 0
ZGB20030 0
ZGB20031 1
ZGB20032 0
ZGB20033 1
ZGB20034 0
ZGB20035 1
ZGB20036 0
ZGB20037 0
ZGB20038 0
ZGB20039 0
ZGB2003A 1
ZGB2003B 0
ZGB2003C 0
ZGB2003D 0
ZGB2003E 0
ZGB2003F 0
ZGB20040 0
ZGB20041 0
ZGB20042 1
ZGB200B1 0
ZGB200B2 0
ZGB200B3 0
ZGB200B4 0
ZGB200B5 0
ZGB200B6 0
ZGB200B7 0
ZGB200B8 0
ZGB30043 1
ZGB30044 0
ZGB30045 1
ZGB30046 0
ZGB30047 0
ZGB30048 0
ZGB30049 1
ZGB3004A 0
ZGB3004B 0
ZGB3004C 0
ZGB3004D 0
ZGB3004E 0
ZGB3004F 0
ZGB30050 1
ZGB30051 8.6802127487746876e-10
ZGB30052 1
ZGB30053 0
ZGB30054 0
ZGB30055 0
ZGB30056 1
ZGB30057 0
ZGB30058 1
ZGB30059 0
ZGB3005A 1
ZGB3005B 0
ZGB3005C 1
ZGB3005D 0
ZGB3005E 0
ZGB3005F 0
ZGB30060 1
ZGB30061 0
ZGB30062 0
ZGB30063 1
ZGB30064 0
ZGB30065 0
ZGB30066 0
ZGB30067 0
ZGB30068 0
ZGB30069 1
ZGB3006A 0
ZGB3006B 1
ZGB3006C 0
ZGB3006D 1
ZGB3006E 0
ZGB3006F 0
ZGB30070 0
ZGB30071 0
ZGB30072 1
ZGB30073 0
ZGB30074 0
ZGB30075 0
ZGB30076 0
ZGB30077 0
ZGB30078 0
ZGB30079 0
ZGB3007A 1
ZGB300B9 0
ZGB300BA 0
ZGB300BB 0
ZGB300BC 0
ZGB300BD 0
ZGB300BE 0
ZGB300BF 0
ZGB300C0 0
MPS_RgCPT10001 0
MPS_RgCPT10002 0
MPS_RgCPT10003 0
MPS_RgCPT10004 0.2
MPS_RgCPT10005 0.2
MPS_RgCPT10006 0
MPS_RgCPT10007 0
MPS_RgCPT10008 0.2
MPS_RgCPT10009 0.2
MPS_RgCPT1000A 0
MPS_RgCPT1000B 0
MPS_RgCPT1000C 0.2
MPS_RgCPT1000D 0.2
MPS_RgCPT1000E 0
MPS_RgCPT1000F 0
MPS_RgCPT10010 0.1
MPS_RgCPT10011 0.1
MPS_RgCPT20001 0
MPS_RgCPT20002 0
MPS_RgCPT20003 0
MPS_RgCPT20004 0.1
MPS_RgCPT20005 0.1
MPS_RgCPT20006 0
MPS_RgCPT20007 0
MPS_RgCPT20008 0.1
MPS_RgCPT20009 0.1
MPS_RgCPT2000A 0
MPS_RgCPT2000B 0
MPS_RgCPT2000C 0.1
MPS_RgCPT2000D 0.1
MPS_RgCPT2000E 0
MPS_RgCPT2000F 0
MPS_RgCPT20010 0.1
MPS_RgCPT20011 0.1
MPS_RgCPT30001 0.1
MPS_RgCPT30002 0
MPS_RgCPT30003 0
MPS_RgCPT30004 0
MPS_RgCPT30005 0.1
MPS_RgCPT30006 0.1
MPS_RgCPT30007 0
MPS_RgCPT30008 0
MPS_RgCPT30009 0.1
MPS_RgCPT3000A 0.1
MPS_RgCPT3000B 0
MPS_RgCPT3000C 0
MPS_RgCPT3000D 0.1
MPS_RgCPT3000E 0.1
MPS_RgCPT3000F 0
MPS_RgCPT30010 0
MPS_RgCPT30011 0.1
